(set-option :produce-models true)
(define-fun ceil ((x Real)) Int (ite (= (to_int x) x) (to_int x) (+ (to_int x) 1)))
(define-fun min2 ((x Int) (y Int)) Int (ite (< x y) x y))
(define-fun max2 ((x Int) (y Int)) Int (ite (> x y) x y))
(define-fun sqrt ((x Real)) Real (^ x 0.5))

(declare-const ___stack0_last_hidden_state_size0 Int)
(set-info :example-___stack0_last_hidden_state_size0 1)
(declare-const ___stack0_last_hidden_state_size1 Int)
(set-info :example-___stack0_last_hidden_state_size1 128)
(declare-const ___stack0_last_hidden_state_size2 Int)
(set-info :example-___stack0_last_hidden_state_size2 1024)
(declare-const ___stack0_last_hidden_state_stride0 Int)
(set-info :example-___stack0_last_hidden_state_stride0 131072)
(declare-const ___stack0_last_hidden_state_stride1 Int)
(set-info :example-___stack0_last_hidden_state_stride1 1024)
(declare-const ___stack0_last_hidden_state_stride2 Int)
(set-info :example-___stack0_last_hidden_state_stride2 1)
(declare-const ___stack0_last_hidden_state_storage_offset Int)
(set-info :example-___stack0_last_hidden_state_storage_offset 0)
(define-fun ge () Bool (>= ___stack0_last_hidden_state_size0 0))
(assert ge)
(define-fun ge_1 () Bool (>= ___stack0_last_hidden_state_size1 0))
(assert ge_1)
(define-fun ge_2 () Bool (>= ___stack0_last_hidden_state_size2 0))
(assert ge_2)
(define-fun eq () Bool (= ___stack0_last_hidden_state_size0 0))
(define-fun not_ () Bool (not eq))
(assert not_)
(define-fun sub () Int (- ___stack0_last_hidden_state_size0 1))
(define-fun mul () Int (* ___stack0_last_hidden_state_stride0 sub))
(define-fun add () Int (+ 1 mul))
(define-fun eq_1 () Bool (= ___stack0_last_hidden_state_size1 0))
(define-fun not__1 () Bool (not eq_1))
(assert not__1)
(define-fun sub_1 () Int (- ___stack0_last_hidden_state_size1 1))
(define-fun mul_1 () Int (* ___stack0_last_hidden_state_stride1 sub_1))
(define-fun add_1 () Int (+ add mul_1))
(define-fun eq_2 () Bool (= ___stack0_last_hidden_state_size2 0))
(define-fun not__2 () Bool (not eq_2))
(assert not__2)
(define-fun sub_2 () Int (- ___stack0_last_hidden_state_size2 1))
(define-fun mul_2 () Int (* ___stack0_last_hidden_state_stride2 sub_2))
(define-fun add_2 () Int (+ add_1 mul_2))
(define-fun mul_3 () Int (* 4 add_2))
(define-fun mul_4 () Int (* ___stack0_last_hidden_state_size0 ___stack0_last_hidden_state_size1))
(define-fun mul_5 () Int (* mul_4 ___stack0_last_hidden_state_size2))
(define-fun eq_3 () Bool (= mul_5 0))
(define-fun not__3 () Bool (not eq_3))
(assert not__3)
(define-fun eq_4 () Bool (= ___stack0_last_hidden_state_size2 1))
(define-fun not__4 () Bool (not eq_4))
(assert not__4)
(define-fun eq_5 () Bool (= ___stack0_last_hidden_state_stride2 1))
(assert eq_5)
(define-fun eq_6 () Bool (= ___stack0_last_hidden_state_size1 1))
(define-fun not__5 () Bool (not eq_6))
(assert not__5)
(define-fun eq_7 () Bool (= ___stack0_last_hidden_state_stride1 ___stack0_last_hidden_state_size2))
(assert eq_7)
(define-fun mul_6 () Int (* ___stack0_last_hidden_state_size2 ___stack0_last_hidden_state_size1))
(define-fun eq_8 () Bool (= ___stack0_last_hidden_state_size0 1))
(assert eq_8)
(define-fun eq_9 () Bool (= ___stack0_last_hidden_state_size0 ___stack0_last_hidden_state_size0))
(assert eq_9)
(define-fun eq_10 () Bool (= ___stack0_last_hidden_state_size1 ___stack0_last_hidden_state_size1))
(assert eq_10)
(define-fun eq_11 () Bool (= ___stack0_last_hidden_state_size2 ___stack0_last_hidden_state_size2))
(assert eq_11)
(define-fun eq_12 () Bool (= ___stack0_last_hidden_state_stride2 0))
(define-fun not__6 () Bool (not eq_12))
(assert not__6)
(define-fun eq_13 () Bool (= ___stack0_last_hidden_state_stride1 0))
(define-fun not__7 () Bool (not eq_13))
(assert not__7)
(define-fun lt () Bool (< ___stack0_last_hidden_state_stride2 ___stack0_last_hidden_state_stride1))
(assert lt)
(define-fun eq_14 () Bool (= ___stack0_last_hidden_state_stride0 0))
(define-fun not__8 () Bool (not eq_14))
(assert not__8)
(define-fun lt_1 () Bool (< ___stack0_last_hidden_state_stride1 ___stack0_last_hidden_state_stride0))
(assert lt_1)
(define-fun mul_7 () Int (* mul_6 ___stack0_last_hidden_state_size0))
(define-fun mul_8 () Int (* mul_6 sub))
(define-fun add_3 () Int (+ 1 mul_8))
(define-fun mul_9 () Int (* ___stack0_last_hidden_state_size2 sub_1))
(define-fun add_4 () Int (+ add_3 mul_9))
(define-fun add_5 () Int (+ add_4 sub_2))
(define-fun mul_10 () Int (* 4 add_5))
(define-fun ge_3 () Bool (>= ___stack0_last_hidden_state_storage_offset 0))
(assert ge_3)
(define-fun add_6 () Int (+ ___stack0_last_hidden_state_storage_offset add_2))
(define-fun mul_11 () Int (* 4 add_6))
(declare-const ___stack0_encoder_last_hidden_state_size0 Int)
(set-info :example-___stack0_encoder_last_hidden_state_size0 1)
(declare-const ___stack0_encoder_last_hidden_state_size1 Int)
(set-info :example-___stack0_encoder_last_hidden_state_size1 128)
(declare-const ___stack0_encoder_last_hidden_state_size2 Int)
(set-info :example-___stack0_encoder_last_hidden_state_size2 1024)
(declare-const ___stack0_encoder_last_hidden_state_stride0 Int)
(set-info :example-___stack0_encoder_last_hidden_state_stride0 131072)
(declare-const ___stack0_encoder_last_hidden_state_stride1 Int)
(set-info :example-___stack0_encoder_last_hidden_state_stride1 1024)
(declare-const ___stack0_encoder_last_hidden_state_stride2 Int)
(set-info :example-___stack0_encoder_last_hidden_state_stride2 1)
(declare-const ___stack0_encoder_last_hidden_state_storage_offset Int)
(set-info :example-___stack0_encoder_last_hidden_state_storage_offset 0)
(define-fun ge_4 () Bool (>= ___stack0_encoder_last_hidden_state_size0 0))
(assert ge_4)
(define-fun ge_5 () Bool (>= ___stack0_encoder_last_hidden_state_size1 0))
(assert ge_5)
(define-fun ge_6 () Bool (>= ___stack0_encoder_last_hidden_state_size2 0))
(assert ge_6)
(define-fun eq_15 () Bool (= ___stack0_encoder_last_hidden_state_size0 0))
(define-fun not__9 () Bool (not eq_15))
(assert not__9)
(define-fun sub_3 () Int (- ___stack0_encoder_last_hidden_state_size0 1))
(define-fun mul_12 () Int (* ___stack0_encoder_last_hidden_state_stride0 sub_3))
(define-fun add_7 () Int (+ 1 mul_12))
(define-fun eq_16 () Bool (= ___stack0_encoder_last_hidden_state_size1 0))
(define-fun not__10 () Bool (not eq_16))
(assert not__10)
(define-fun sub_4 () Int (- ___stack0_encoder_last_hidden_state_size1 1))
(define-fun mul_13 () Int (* ___stack0_encoder_last_hidden_state_stride1 sub_4))
(define-fun add_8 () Int (+ add_7 mul_13))
(define-fun eq_17 () Bool (= ___stack0_encoder_last_hidden_state_size2 0))
(define-fun not__11 () Bool (not eq_17))
(assert not__11)
(define-fun sub_5 () Int (- ___stack0_encoder_last_hidden_state_size2 1))
(define-fun mul_14 () Int (* ___stack0_encoder_last_hidden_state_stride2 sub_5))
(define-fun add_9 () Int (+ add_8 mul_14))
(define-fun mul_15 () Int (* 4 add_9))
(define-fun mul_16 () Int (* ___stack0_encoder_last_hidden_state_size0 ___stack0_encoder_last_hidden_state_size1))
(define-fun mul_17 () Int (* mul_16 ___stack0_encoder_last_hidden_state_size2))
(define-fun eq_18 () Bool (= mul_17 0))
(define-fun not__12 () Bool (not eq_18))
(assert not__12)
(define-fun eq_19 () Bool (= ___stack0_encoder_last_hidden_state_size2 1))
(define-fun not__13 () Bool (not eq_19))
(assert not__13)
(define-fun eq_20 () Bool (= ___stack0_encoder_last_hidden_state_stride2 1))
(assert eq_20)
(define-fun eq_21 () Bool (= ___stack0_encoder_last_hidden_state_size1 1))
(define-fun not__14 () Bool (not eq_21))
(assert not__14)
(define-fun eq_22 () Bool (= ___stack0_encoder_last_hidden_state_stride1 ___stack0_encoder_last_hidden_state_size2))
(assert eq_22)
(define-fun mul_18 () Int (* ___stack0_encoder_last_hidden_state_size2 ___stack0_encoder_last_hidden_state_size1))
(define-fun eq_23 () Bool (= ___stack0_encoder_last_hidden_state_size0 1))
(assert eq_23)
(define-fun eq_24 () Bool (= ___stack0_encoder_last_hidden_state_size0 ___stack0_encoder_last_hidden_state_size0))
(assert eq_24)
(define-fun eq_25 () Bool (= ___stack0_encoder_last_hidden_state_size1 ___stack0_encoder_last_hidden_state_size1))
(assert eq_25)
(define-fun eq_26 () Bool (= ___stack0_encoder_last_hidden_state_size2 ___stack0_encoder_last_hidden_state_size2))
(assert eq_26)
(define-fun eq_27 () Bool (= ___stack0_encoder_last_hidden_state_stride2 0))
(define-fun not__15 () Bool (not eq_27))
(assert not__15)
(define-fun eq_28 () Bool (= ___stack0_encoder_last_hidden_state_stride1 0))
(define-fun not__16 () Bool (not eq_28))
(assert not__16)
(define-fun lt_2 () Bool (< ___stack0_encoder_last_hidden_state_stride2 ___stack0_encoder_last_hidden_state_stride1))
(assert lt_2)
(define-fun eq_29 () Bool (= ___stack0_encoder_last_hidden_state_stride0 0))
(define-fun not__17 () Bool (not eq_29))
(assert not__17)
(define-fun lt_3 () Bool (< ___stack0_encoder_last_hidden_state_stride1 ___stack0_encoder_last_hidden_state_stride0))
(assert lt_3)
(define-fun mul_19 () Int (* mul_18 ___stack0_encoder_last_hidden_state_size0))
(define-fun mul_20 () Int (* mul_18 sub_3))
(define-fun add_10 () Int (+ 1 mul_20))
(define-fun mul_21 () Int (* ___stack0_encoder_last_hidden_state_size2 sub_4))
(define-fun add_11 () Int (+ add_10 mul_21))
(define-fun add_12 () Int (+ add_11 sub_5))
(define-fun mul_22 () Int (* 4 add_12))
(define-fun ge_7 () Bool (>= ___stack0_encoder_last_hidden_state_storage_offset 0))
(assert ge_7)
(define-fun add_13 () Int (+ ___stack0_encoder_last_hidden_state_storage_offset add_9))
(define-fun mul_23 () Int (* 4 add_13))
(declare-const labels_size0 Int)
(set-info :example-labels_size0 1)
(declare-const labels_size1 Int)
(set-info :example-labels_size1 128)
(declare-const labels_stride0 Int)
(set-info :example-labels_stride0 128)
(declare-const labels_stride1 Int)
(set-info :example-labels_stride1 1)
(declare-const labels_storage_offset Int)
(set-info :example-labels_storage_offset 0)
(define-fun ge_8 () Bool (>= labels_size0 0))
(assert ge_8)
(define-fun ge_9 () Bool (>= labels_size1 0))
(assert ge_9)
(define-fun eq_30 () Bool (= labels_size0 0))
(define-fun not__18 () Bool (not eq_30))
(assert not__18)
(define-fun sub_6 () Int (- labels_size0 1))
(define-fun mul_24 () Int (* labels_stride0 sub_6))
(define-fun add_14 () Int (+ 1 mul_24))
(define-fun eq_31 () Bool (= labels_size1 0))
(define-fun not__19 () Bool (not eq_31))
(assert not__19)
(define-fun sub_7 () Int (- labels_size1 1))
(define-fun mul_25 () Int (* labels_stride1 sub_7))
(define-fun add_15 () Int (+ add_14 mul_25))
(define-fun mul_26 () Int (* 8 add_15))
(define-fun mul_27 () Int (* labels_size0 labels_size1))
(define-fun eq_32 () Bool (= mul_27 0))
(define-fun not__20 () Bool (not eq_32))
(assert not__20)
(define-fun eq_33 () Bool (= labels_size1 1))
(define-fun not__21 () Bool (not eq_33))
(assert not__21)
(define-fun eq_34 () Bool (= labels_stride1 1))
(assert eq_34)
(define-fun eq_35 () Bool (= labels_size0 1))
(assert eq_35)
(define-fun ge_10 () Bool (>= labels_storage_offset 0))
(assert ge_10)
(define-fun add_16 () Int (+ labels_storage_offset add_15))
(define-fun mul_28 () Int (* 8 add_16))
(define-fun eq_36 () Bool (= mul_4 -1))
(define-fun not__22 () Bool (not eq_36))
(assert not__22)
(define-fun ge_11 () Bool (>= mul_4 0))
(assert ge_11)
(define-fun eq_37 () Bool (= ___stack0_last_hidden_state_size2 -1))
(define-fun not__23 () Bool (not eq_37))
(assert not__23)
(define-fun eq_38 () Bool (= mul_5 mul_5))
(assert eq_38)
(define-fun mul_29 () Int (* ___stack0_last_hidden_state_size2 ___stack0_last_hidden_state_stride2))
(define-fun eq_39 () Bool (= ___stack0_last_hidden_state_stride1 mul_29))
(assert eq_39)
(define-fun lt_4 () Bool (< 1 mul_7))
(assert lt_4)
(define-fun lt_5 () Bool (< ___stack0_last_hidden_state_size2 mul_7))
(assert lt_5)
(define-fun mul_30 () Int (* ___stack0_last_hidden_state_size2 mul_4))
(define-fun eq_40 () Bool (= mul_30 mul_7))
(assert eq_40)
(define-fun eq_41 () Bool (= ___stack0_last_hidden_state_size0 mul_4))
(define-fun not__24 () Bool (not eq_41))
(assert not__24)
(define-fun eq_42 () Bool (= mul_4 ___stack0_last_hidden_state_size0))
(define-fun not__25 () Bool (not eq_42))
(assert not__25)
(define-fun mod () Int (mod ___stack0_last_hidden_state_size0 mul_4))
(define-fun eq_43 () Bool (= mod 0))
(define-fun not__26 () Bool (not eq_43))
(assert not__26)
(define-fun mod_1 () Int (mod mul_4 mul_4))
(define-fun eq_44 () Bool (= mod_1 0))
(assert eq_44)
(define-fun mul_31 () Int (* ___stack0_last_hidden_state_size1 ___stack0_last_hidden_state_size2))
(define-fun eq_45 () Bool (= mul_31 0))
(define-fun not__27 () Bool (not eq_45))
(assert not__27)
(define-fun eq_46 () Bool (= mul_4 mul_4))
(assert eq_46)
(define-fun eq_47 () Bool (= ___stack0_last_hidden_state_size2 1024))
(assert eq_47)
(define-fun mul_32 () Int (* 50265 ___stack0_last_hidden_state_size1))
(define-fun mul_33 () Int (* 50265 sub_1))
(define-fun add_17 () Int (+ 1 mul_33))
(define-fun add_18 () Int (+ add_17 50264))
(define-fun mul_34 () Int (* 4 add_18))
(define-fun mul_35 () Int (* ___stack0_last_hidden_state_size1 50265))
(define-fun eq_48 () Bool (= mul_35 0))
(define-fun not__28 () Bool (not eq_48))
(assert not__28)
(define-fun eq_49 () Bool (= ___stack0_last_hidden_state_size0 -1))
(define-fun not__29 () Bool (not eq_49))
(assert not__29)
(define-fun eq_50 () Bool (= ___stack0_last_hidden_state_size1 -1))
(define-fun not__30 () Bool (not eq_50))
(assert not__30)
(define-fun mul_36 () Int (* mul_4 50265))
(define-fun eq_51 () Bool (= mul_35 mul_36))
(assert eq_51)
(define-fun eq_52 () Bool (= ___stack0_last_hidden_state_size1 ___stack0_last_hidden_state_size0))
(define-fun not__31 () Bool (not eq_52))
(assert not__31)
(define-fun eq_53 () Bool (= ___stack0_last_hidden_state_size0 ___stack0_last_hidden_state_size1))
(define-fun not__32 () Bool (not eq_53))
(assert not__32)
(define-fun mod_2 () Int (mod ___stack0_last_hidden_state_size1 ___stack0_last_hidden_state_size0))
(define-fun eq_54 () Bool (= mod_2 0))
(assert eq_54)
(define-fun floordiv () Int (div ___stack0_last_hidden_state_size1 ___stack0_last_hidden_state_size0))
(define-fun mul_37 () Int (* 50265 floordiv))
(define-fun mul_38 () Int (* ___stack0_last_hidden_state_size0 floordiv))
(define-fun mul_39 () Int (* mul_38 50265))
(define-fun eq_55 () Bool (= mul_39 0))
(define-fun not__33 () Bool (not eq_55))
(assert not__33)
(define-fun eq_56 () Bool (= floordiv 1))
(define-fun not__34 () Bool (not eq_56))
(assert not__34)
(define-fun eq_57 () Bool (= ___stack0_last_hidden_state_size1 floordiv))
(assert eq_57)
(declare-const self_final_logits_bias_size0 Int)
(set-info :example-self_final_logits_bias_size0 1)
(declare-const self_final_logits_bias_size1 Int)
(set-info :example-self_final_logits_bias_size1 50265)
(declare-const self_final_logits_bias_stride0 Int)
(set-info :example-self_final_logits_bias_stride0 50265)
(declare-const self_final_logits_bias_stride1 Int)
(set-info :example-self_final_logits_bias_stride1 1)
(declare-const self_final_logits_bias_storage_offset Int)
(set-info :example-self_final_logits_bias_storage_offset 0)
(define-fun ge_12 () Bool (>= self_final_logits_bias_size0 0))
(assert ge_12)
(define-fun ge_13 () Bool (>= self_final_logits_bias_size1 0))
(assert ge_13)
(define-fun eq_58 () Bool (= self_final_logits_bias_size0 0))
(define-fun not__35 () Bool (not eq_58))
(assert not__35)
(define-fun sub_8 () Int (- self_final_logits_bias_size0 1))
(define-fun mul_40 () Int (* self_final_logits_bias_stride0 sub_8))
(define-fun add_19 () Int (+ 1 mul_40))
(define-fun eq_59 () Bool (= self_final_logits_bias_size1 0))
(define-fun not__36 () Bool (not eq_59))
(assert not__36)
(define-fun sub_9 () Int (- self_final_logits_bias_size1 1))
(define-fun mul_41 () Int (* self_final_logits_bias_stride1 sub_9))
(define-fun add_20 () Int (+ add_19 mul_41))
(define-fun mul_42 () Int (* 4 add_20))
(define-fun mul_43 () Int (* self_final_logits_bias_size0 self_final_logits_bias_size1))
(define-fun eq_60 () Bool (= mul_43 0))
(define-fun not__37 () Bool (not eq_60))
(assert not__37)
(define-fun eq_61 () Bool (= self_final_logits_bias_size1 1))
(define-fun not__38 () Bool (not eq_61))
(assert not__38)
(define-fun eq_62 () Bool (= self_final_logits_bias_stride1 1))
(assert eq_62)
(define-fun eq_63 () Bool (= self_final_logits_bias_size0 1))
(assert eq_63)
(define-fun ge_14 () Bool (>= self_final_logits_bias_storage_offset 0))
(assert ge_14)
(define-fun add_21 () Int (+ self_final_logits_bias_storage_offset add_20))
(define-fun mul_44 () Int (* 4 add_21))
(define-fun lt_6 () Bool (< floordiv 0))
(define-fun not__39 () Bool (not lt_6))
(assert not__39)
(define-fun lt_7 () Bool (< ___stack0_last_hidden_state_size0 0))
(define-fun not__40 () Bool (not lt_7))
(assert not__40)
(define-fun eq_64 () Bool (= self_final_logits_bias_size1 50265))
(assert eq_64)
(define-fun eq_65 () Bool (= floordiv floordiv))
(assert eq_65)
(define-fun eq_66 () Bool (= floordiv self_final_logits_bias_size0))
(define-fun not__41 () Bool (not eq_66))
(assert not__41)
(define-fun eq_67 () Bool (= floordiv -1))
(define-fun not__42 () Bool (not eq_67))
(assert not__42)
(define-fun ge_15 () Bool (>= floordiv 0))
(assert ge_15)
(define-fun mul_45 () Int (* self_final_logits_bias_stride0 self_final_logits_bias_size0))
(define-fun eq_68 () Bool (= self_final_logits_bias_size0 floordiv))
(define-fun not__43 () Bool (not eq_68))
(assert not__43)
(define-fun lt_8 () Bool (< floordiv 2))
(define-fun not__44 () Bool (not lt_8))
(assert not__44)
(define-fun lt_9 () Bool (< ___stack0_last_hidden_state_size0 2))
(assert lt_9)
(define-fun lt_10 () Bool (< self_final_logits_bias_stride1 0))
(define-fun not__45 () Bool (not lt_10))
(assert not__45)
(define-fun eq_69 () Bool (= mul_37 0))
(define-fun not__46 () Bool (not eq_69))
(assert not__46)
(define-fun gt () Bool (> mul_37 50265))
(assert gt)
(define-fun eq_70 () Bool (= floordiv 0))
(define-fun not__47 () Bool (not eq_70))
(assert not__47)
(define-fun mul_46 () Int (* mul_37 ___stack0_last_hidden_state_size0))
(define-fun mul_47 () Int (* mul_37 sub))
(define-fun add_22 () Int (+ 1 mul_47))
(define-fun sub_10 () Int (- floordiv 1))
(define-fun mul_48 () Int (* 50265 sub_10))
(define-fun add_23 () Int (+ add_22 mul_48))
(define-fun add_24 () Int (+ add_23 50264))
(define-fun mul_49 () Int (* 4 add_24))
(define-fun eq_71 () Bool (= mul_39 50265))
(define-fun not__48 () Bool (not eq_71))
(assert not__48)
(define-fun mod_3 () Int (mod mul_39 50265))
(define-fun eq_72 () Bool (= mod_3 0))
(assert eq_72)
(define-fun floordiv_1 () Int (div mul_39 50265))
(define-fun eq_73 () Bool (= ___stack0_last_hidden_state_size0 floordiv_1))
(define-fun not__49 () Bool (not eq_73))
(assert not__49)
(define-fun eq_74 () Bool (= floordiv_1 ___stack0_last_hidden_state_size0))
(define-fun not__50 () Bool (not eq_74))
(assert not__50)
(define-fun mod_4 () Int (mod ___stack0_last_hidden_state_size0 floordiv_1))
(define-fun eq_75 () Bool (= mod_4 0))
(define-fun not__51 () Bool (not eq_75))
(assert not__51)
(define-fun mod_5 () Int (mod mul_38 floordiv_1))
(define-fun eq_76 () Bool (= mod_5 0))
(assert eq_76)
(define-fun mul_50 () Int (* floordiv 50265))
(define-fun eq_77 () Bool (= mul_50 0))
(define-fun not__52 () Bool (not eq_77))
(assert not__52)
(define-fun eq_78 () Bool (= mul_38 floordiv_1))
(assert eq_78)
(define-fun eq_79 () Bool (= mul_27 1))
(define-fun not__53 () Bool (not eq_79))
(assert not__53)
(define-fun mod_6 () Int (mod mul_27 1))
(define-fun eq_80 () Bool (= mod_6 0))
(assert eq_80)
(define-fun floordiv_2 () Int (div mul_27 1))
(define-fun eq_81 () Bool (= labels_size0 floordiv_2))
(define-fun not__54 () Bool (not eq_81))
(assert not__54)
(define-fun eq_82 () Bool (= floordiv_2 labels_size0))
(define-fun not__55 () Bool (not eq_82))
(assert not__55)
(define-fun mod_7 () Int (mod labels_size0 floordiv_2))
(define-fun eq_83 () Bool (= mod_7 0))
(define-fun not__56 () Bool (not eq_83))
(assert not__56)
(define-fun mod_8 () Int (mod mul_27 floordiv_2))
(define-fun eq_84 () Bool (= mod_8 0))
(assert eq_84)
(define-fun eq_85 () Bool (= mul_27 floordiv_2))
(assert eq_85)
(define-fun add_25 () Int (+ 1 sub_10))
(define-fun mul_51 () Int (* 4 add_25))
(define-fun add_26 () Int (+ 1 mul_48))
(define-fun add_27 () Int (+ add_26 50264))
(define-fun mul_52 () Int (* 4 add_27))
(define-fun lt_11 () Bool (< floordiv 1))
(define-fun not__57 () Bool (not lt_11))
(assert not__57)
(define-fun eq_86 () Bool (= mul_50 mul_50))
(assert eq_86)
(define-fun eq_87 () Bool (= floordiv labels_size1))
(assert eq_87)
(define-fun eq_88 () Bool (= labels_size1 labels_size1))
(assert eq_88)
(define-fun le () Bool (<= labels_size1 floordiv))
(assert le)
(define-fun add_28 () Int (+ 1 sub_7))
(define-fun mul_53 () Int (* 4 add_28))
(define-fun mul_54 () Real (* 1.0 labels_size1))
(define-fun sym_float () Real (to_real labels_size1))
(define-fun eq_89 () Bool (= mul_44 0))
(define-fun not__58 () Bool (not eq_89))
(assert not__58)
(define-fun eq_90 () Bool (= mul_11 0))
(define-fun not__59 () Bool (not eq_90))
(assert not__59)
(define-fun eq_91 () Bool (= mul_28 0))
(define-fun not__60 () Bool (not eq_91))
(assert not__60)
(define-fun eq_92 () Bool (= mul_49 0))
(define-fun not__61 () Bool (not eq_92))
(assert not__61)
(define-fun output0_storage_offset () Int 0)
(define-fun output1_size0 () Int ___stack0_last_hidden_state_size0)
(define-fun output1_size1 () Int floordiv)
(define-fun output1_size2 () Int 50265)
(define-fun output1_stride0 () Int mul_37)
(define-fun output1_stride1 () Int 50265)
(define-fun output1_stride2 () Int 1)
(define-fun output1_storage_offset () Int 0)
(check-sat)
(get-value (___stack0_last_hidden_state_size0 ___stack0_last_hidden_state_size1 ___stack0_last_hidden_state_size2 ___stack0_last_hidden_state_stride0 ___stack0_last_hidden_state_stride1 ___stack0_last_hidden_state_stride2 ___stack0_last_hidden_state_storage_offset ___stack0_encoder_last_hidden_state_size0 ___stack0_encoder_last_hidden_state_size1 ___stack0_encoder_last_hidden_state_size2 ___stack0_encoder_last_hidden_state_stride0 ___stack0_encoder_last_hidden_state_stride1 ___stack0_encoder_last_hidden_state_stride2 ___stack0_encoder_last_hidden_state_storage_offset labels_size0 labels_size1 labels_stride0 labels_stride1 labels_storage_offset self_final_logits_bias_size0 self_final_logits_bias_size1 self_final_logits_bias_stride0 self_final_logits_bias_stride1 self_final_logits_bias_storage_offset output0_storage_offset output1_size0 output1_size1 output1_size2 output1_stride0 output1_stride1 output1_stride2 output1_storage_offset))
